ICSD_9106.AB #150 - - hP43 P321 150  (WI
1.016396
   3.27490867077150  -5.67257078974639   0.00004686087563
   3.27490694269729   5.67256978468864  -0.00004953020278
  -0.00000486855588  -0.00010591904478  12.05899112262487
Ni Si
31 12 
Direct(43) [A31B12] 
   0.00002268311270   0.00002302460614   0.50000071601653  Ni    
   0.99999734457803   0.99999451259128   0.09714682300305  Ni    
   0.99999473331696   0.99999800788755   0.90285478624463  Ni    
   0.33332953594210   0.66666558513990   0.07291123889508  Ni    
   0.66666483131420   0.33332868759496   0.92708820822043  Ni    
   0.33333625010434   0.66665128003215   0.56669706885289  Ni    
   0.66665079635990   0.33333554356885   0.43330325046870  Ni    
   0.41237564738013   0.07932299136705   0.09543354255850  Ni    
   0.92068587135032   0.33305109480815   0.09543131148199  Ni    
   0.66693648495021   0.58762400806436   0.09543233159304  Ni    
   0.07932542926466   0.41237680998913   0.90456510911578  Ni    
   0.33305091100090   0.92068424326056   0.90456748977461  Ni    
   0.58762285805925   0.66693744295540   0.90456622235848  Ni    
   0.66494276097697   0.96270152836332   0.19786244119219  Ni    
   0.03729405441170   0.70224530341362   0.19786507906563  Ni    
   0.29774563544046   0.33504789294055   0.19787116814649  Ni    
   0.96270190039237   0.66494269654489   0.80213809754538  Ni    
   0.70224459178944   0.03729361097717   0.80213525850372  Ni    
   0.33504824144758   0.29774601410720   0.80212918192442  Ni    
   0.35719366594829   0.03423786748555   0.30517158184300  Ni    
   0.96576222833759   0.32295929010535   0.30516957158808  Ni    
   0.67702200100493   0.64279686787051   0.30516501844682  Ni    
   0.03423632598238   0.35719175705165   0.69482853735409  Ni    
   0.32296010314227   0.96576377622557   0.69483044080405  Ni    
   0.64279736018203   0.67702205927204   0.69483534042867  Ni    
   0.62988646154855   0.93807308074332   0.40358683630037  Ni    
   0.06192140507737   0.69180433001387   0.40358877112599  Ni    
   0.30819327694636   0.37017903270280   0.40359607177268  Ni    
   0.93807189269442   0.62988592155077   0.59641347414869  Ni    
   0.69180454877161   0.06192263875016   0.59641117055187  Ni    
   0.37017934242504   0.30819259151472   0.59640427597881  Ni    
   0.00000006304285   0.00000891197957   0.29264363706454  Si    
   0.00000843251785   0.00000021703663   0.70735646159568  Si    
   0.33332613484676   0.66666965627841   0.27563023642512  Si    
   0.66666879697192   0.33332496750077   0.72436952032360  Si    
   0.33333786509549   0.66666270010576   0.77339058155302  Si    
   0.66666236396817   0.33333713183159   0.22661054135720  Si    
   0.68141310823639   0.99999634932455   0.99999934612988  Si    
   0.99999785741792   0.68141412576350   0.00000040660533  Si    
   0.31857755965101   0.31857796716814  -0.00000011418084  Si    
   0.35087332420514   0.99998359304719   0.49999905374296  Si    
   0.99998128048089   0.35087156898791   0.50000027463993  Si    
   0.64915404031256   0.64915331947745   0.49999963943892  Si    
