Si Ni
1.0
 12.203402000000   0.000000000000   0.000000000000
  0.000000000000  10.789108000000   0.000000000000
  0.000000000000   0.000000000000   6.907554000000
Ni Si
48 32
Direct
  0.000000000000   0.000000000000   0.034319963333
  0.500000000000   0.500000000000   0.034319963333
  0.327837680017   0.381067090996   0.095261940768
  0.672162319983   0.381067090996   0.095261940768
  0.172162319983   0.881067090996   0.095261940768
  0.827837680017   0.881067090996   0.095261940768
  0.000000000000   0.234147623696   0.095649921810
  0.500000000000   0.734147623696   0.095649921810
  0.180864729360   0.495710488763   0.283898902564
  0.819135270640   0.495710488763   0.283898902564
  0.319135270640   0.995710488763   0.283898902564
  0.680864729360   0.995710488763   0.283898902564
  0.196784880151   0.247100501728   0.284380983486
  0.803215119849   0.247100501728   0.284380983486
  0.303215119849   0.747100501728   0.284380983486
  0.696784880151   0.747100501728   0.284380983486
  0.500000000000   0.116779811640   0.285844164229
  0.000000000000   0.616779811640   0.285844164229
  0.000000000000   0.234667592539   0.471797542227
  0.500000000000   0.734667592539   0.471797542227
  0.327359944383   0.381774285696   0.473799698128
  0.672640055617   0.381774285696   0.473799698128
  0.172640055617   0.881774285696   0.473799698128
  0.827359944383   0.881774285696   0.473799698128
  0.000000000000   0.000000000000   0.534319963333
  0.500000000000   0.500000000000   0.534319963333
  0.172162319983   0.118932909004   0.595261940768
  0.827837680017   0.118932909004   0.595261940768
  0.327837680017   0.618932909004   0.595261940768
  0.672162319983   0.618932909004   0.595261940768
  0.500000000000   0.265852376304   0.595649921810
  0.000000000000   0.765852376304   0.595649921810
  0.319135270640   0.004289511237   0.783898902564
  0.680864729360   0.004289511237   0.783898902564
  0.180864729360   0.504289511237   0.783898902564
  0.819135270640   0.504289511237   0.783898902564
  0.303215119849   0.252899498272   0.784380983486
  0.696784880151   0.252899498272   0.784380983486
  0.196784880151   0.752899498272   0.784380983486
  0.803215119849   0.752899498272   0.784380983486
  0.000000000000   0.383220188360   0.785844164229
  0.500000000000   0.883220188360   0.785844164229
  0.500000000000   0.265332407461   0.971797542227
  0.000000000000   0.765332407461   0.971797542227
  0.172640055617   0.118225714304   0.973799698128
  0.827359944383   0.118225714304   0.973799698128
  0.327359944383   0.618225714304   0.973799698128
  0.672640055617   0.618225714304   0.973799698128
  0.348754879992   0.157639537949   0.075325361192
  0.651245120008   0.157639537949   0.075325361192
  0.151245120008   0.657639537949   0.075325361192
  0.848754879992   0.657639537949   0.075325361192
  0.000000000000   0.407546573822   0.282591638082
  0.500000000000   0.907546573822   0.282591638082
  0.500000000000   0.343892192014   0.284088115706
  0.000000000000   0.843892192014   0.284088115706
  0.118973053580   0.057070519639   0.284337118465
  0.881026946420   0.057070519639   0.284337118465
  0.381026946420   0.557070519639   0.284337118465
  0.618973053580   0.557070519639   0.284337118465
  0.347870700318   0.158477420005   0.491850516116
  0.652129299682   0.158477420005   0.491850516116
  0.152129299682   0.658477420005   0.491850516116
  0.847870700318   0.658477420005   0.491850516116
  0.151245120008   0.342360462051   0.575325361192
  0.848754879992   0.342360462051   0.575325361192
  0.348754879992   0.842360462051   0.575325361192
  0.651245120008   0.842360462051   0.575325361192
  0.500000000000   0.092453426178   0.782591638082
  0.000000000000   0.592453426178   0.782591638082
  0.000000000000   0.156107807986   0.784088115706
  0.500000000000   0.656107807986   0.784088115706
  0.381026946420   0.442929480361   0.784337118465
  0.618973053580   0.442929480361   0.784337118465
  0.118973053580   0.942929480361   0.784337118465
  0.881026946420   0.942929480361   0.784337118465
  0.152129299682   0.341522579995   0.991850516116
  0.847870700318   0.341522579995   0.991850516116
  0.347870700318   0.841522579995   0.991850516116
  0.652129299682   0.841522579995   0.991850516116
