MLIP output to VASP
1.0
        4.4639863968         0.0000000000         0.0000000000
        1.4985900639         4.2049259650         0.0000000000
       -4.4481135298         6.3074159327         5.1021135002
   Cu   Si
   60   27
Direct
     0.371608794         0.128389552         0.247739896
     0.371608794         0.128389552         1.247739896
     0.371608794         1.128389552         0.247739896
     0.371608794         1.128389552         1.247739896
     1.371608794         0.128389552         0.247739896
     1.371608794         0.128389552         1.247739896
     1.371608794         1.128389552         0.247739896
     1.371608794         1.128389552         1.247739896
     0.736045301         0.263954699         0.490696371
     0.736045301         0.263954699         1.490696371
     0.736045301         1.263954699         0.490696371
     0.736045301         1.263954699         1.490696371
     1.736045301         0.263954699         0.490696371
     1.736045301         0.263954699         1.490696371
     1.736045301         1.263954699         0.490696371
     1.736045301         1.263954699         1.490696371
     0.128389880         0.371608496         0.752260208
     0.128389880         0.371608496         1.752260208
     0.128389880         1.371608496         0.752260208
     0.128389880         1.371608496         1.752260208
     1.128389880         0.371608496         0.752260208
     1.128389880         0.371608496         1.752260208
     1.128389880         1.371608496         0.752260208
     1.128389880         1.371608496         1.752260208
     0.500000000         0.499999911         0.000000000
     0.500000000         0.499999911         1.000000000
     0.500000000         0.499999911         2.000000000
     0.500000000         1.499999911         0.000000000
     0.500000000         1.499999911         1.000000000
     0.500000000         1.499999911         2.000000000
     1.500000000         0.499999911         0.000000000
     1.500000000         0.499999911         1.000000000
     1.500000000         0.499999911         2.000000000
     1.500000000         1.499999911         0.000000000
     1.500000000         1.499999911         1.000000000
     1.500000000         1.499999911         2.000000000
     0.871610224         0.628391683         0.247740045
     0.871610224         0.628391683         1.247740045
     0.871610224         1.628391683         0.247740045
     0.871610224         1.628391683         1.247740045
     1.871610224         0.628391683         0.247740045
     1.871610224         0.628391683         1.247740045
     1.871610224         1.628391683         0.247740045
     1.871610224         1.628391683         1.247740045
     0.263955265         0.736044943         0.509303868
     0.263955265         0.736044943         1.509303868
     0.263955265         1.736044943         0.509303868
     0.263955265         1.736044943         1.509303868
     1.263955265         0.736044943         0.509303868
     1.263955265         0.736044943         1.509303868
     1.263955265         1.736044943         0.509303868
     1.263955265         1.736044943         1.509303868
     0.628391743         0.871610165         0.752260029
     0.628391743         0.871610165         1.752260029
     0.628391743         1.871610165         0.752260029
     0.628391743         1.871610165         1.752260029
     1.628391743         0.871610165         0.752260029
     1.628391743         0.871610165         1.752260029
     1.628391743         1.871610165         0.752260029
     1.628391743         1.871610165         1.752260029
     0.000000000         0.000000000         0.000000000
     0.000000000         0.000000000         1.000000000
     0.000000000         0.000000000         2.000000000
    -0.000000000         1.000000000         0.000000000
     0.000000000         1.000000000         1.000000000
    -0.000000000         1.000000000         2.000000000
    -0.000000000         2.000000000         0.000000000
     0.000000000         2.000000000         1.000000000
     0.000000000         2.000000000         2.000000000
     1.000000000         0.000000000         0.000000000
     1.000000000         0.000000000         1.000000000
     1.000000000         0.000000000         2.000000000
     1.000000000         1.000000000         0.000000000
     1.000000000         1.000000000         1.000000000
     1.000000000         1.000000000         2.000000000
     1.000000000         2.000000000         0.000000000
     1.000000000         2.000000000         1.000000000
     1.000000000         2.000000000         2.000000000
     2.000000000         0.000000000         0.000000000
     2.000000000         0.000000000         1.000000000
     2.000000000         0.000000000         2.000000000
     2.000000000         1.000000000         0.000000000
     2.000000000         1.000000000         1.000000000
     2.000000000         1.000000000         2.000000000
     2.000000000         2.000000000         0.000000000
     2.000000000         2.000000000         1.000000000
     2.000000000         2.000000000         2.000000000

